# Solution for model FSG
# Objective value = 3.0167422393785721e+01
x_0_1 0
x_0_2 0
x_0_3 0
x_0_4 1
x_0_5 0
x_0_6 1
x_0_7 0
x_0_8 0
x_0_9 0
x_0_10 1
x_0_11 0
x_0_12 0
x_0_13 0
x_1_2 1
x_1_3 0
x_1_4 0
x_1_5 0
x_1_6 0
x_1_7 0
x_1_8 0
x_1_9 0
x_1_10 0
x_1_11 0
x_1_12 0
x_1_13 0
x_2_1 0
x_2_3 0
x_2_4 0
x_2_5 0
x_2_6 0
x_2_7 0
x_2_8 0
x_2_9 0
x_2_10 0
x_2_11 1
x_2_12 0
x_2_13 0
x_3_1 0
x_3_2 0
x_3_4 0
x_3_5 0
x_3_6 0
x_3_7 0
x_3_8 0
x_3_9 0
x_3_10 0
x_3_11 0
x_3_12 0
x_3_13 1
x_4_1 0
x_4_2 0
x_4_3 0
x_4_5 0
x_4_6 0
x_4_7 0
x_4_8 1
x_4_9 0
x_4_10 0
x_4_11 0
x_4_12 0
x_4_13 0
x_5_1 0
x_5_2 0
x_5_3 0
x_5_4 0
x_5_6 0
x_5_7 0
x_5_8 0
x_5_9 0
x_5_10 0
x_5_11 0
x_5_12 1
x_5_13 0
x_6_1 0
x_6_2 0
x_6_3 1
x_6_4 0
x_6_5 0
x_6_7 0
x_6_8 0
x_6_9 0
x_6_10 0
x_6_11 0
x_6_12 0
x_6_13 0
x_7_1 1
x_7_2 0
x_7_3 0
x_7_4 0
x_7_5 0
x_7_6 0
x_7_8 0
x_7_9 0
x_7_10 0
x_7_11 0
x_7_12 0
x_7_13 0
x_8_1 0
x_8_2 0
x_8_3 0
x_8_4 0
x_8_5 0
x_8_6 0
x_8_7 0
x_8_9 1
x_8_10 0
x_8_11 0
x_8_12 0
x_8_13 0
x_9_1 0
x_9_2 0
x_9_3 0
x_9_4 0
x_9_5 1
x_9_6 0
x_9_7 0
x_9_8 0
x_9_10 0
x_9_11 0
x_9_12 0
x_9_13 0
x_10_1 0
x_10_2 0
x_10_3 0
x_10_4 0
x_10_5 0
x_10_6 0
x_10_7 1
x_10_8 0
x_10_9 0
x_10_11 0
x_10_12 0
x_10_13 0
U_1_1 0
U_1_2 0
U_1_3 1
U_2_1 0
U_2_2 0
U_2_3 1
U_3_1 0
U_3_2 0
U_3_3 1
U_4_1 0
U_4_2 0
U_4_3 1
U_5_1 0
U_5_2 0
U_5_3 1
U_6_1 0
U_6_2 0
U_6_3 1
U_7_1 0
U_7_2 0
U_7_3 1
U_8_1 0
U_8_2 0
U_8_3 1
U_9_1 0
U_9_2 0
U_9_3 1
U_10_1 0
U_10_2 0
U_10_3 1
U_11_1 0
U_11_2 0
U_11_3 1
U_12_1 0
U_12_2 0
U_12_3 1
U_13_1 0
U_13_2 0
U_13_3 1
TBar_0 0
TBar_1 2.2611924650596830e+01
TBar_2 2.6732664875362278e+01
TBar_3 2.0348855270850216e+01
TBar_4 20
TBar_5 2.6715792496696626e+01
TBar_6 20
TBar_7 2.2011591409804684e+01
TBar_8 2.2312249986485018e+01
TBar_9 2.4765920706039640e+01
TBar_10 20
TBar_11 30
TBar_12 30
TBar_13 30
y_0_1_1 0
y_0_2_1 0
y_0_3_1 0
y_0_4_1 0
y_0_5_1 0
y_0_6_1 0
y_0_7_1 0
y_0_8_1 0
y_0_9_1 0
y_0_10_1 0
y_0_11_1 0
y_0_12_1 0
y_0_13_1 0
y_1_2_1 0
y_1_3_1 0
y_1_4_1 0
y_1_5_1 0
y_1_6_1 0
y_1_7_1 0
y_1_8_1 0
y_1_9_1 0
y_1_10_1 0
y_1_11_1 0
y_1_12_1 0
y_1_13_1 0
y_2_1_1 0
y_2_3_1 0
y_2_4_1 0
y_2_5_1 0
y_2_6_1 0
y_2_7_1 0
y_2_8_1 0
y_2_9_1 0
y_2_10_1 0
y_2_11_1 0
y_2_12_1 0
y_2_13_1 0
y_3_1_1 0
y_3_2_1 0
y_3_4_1 0
y_3_5_1 0
y_3_6_1 0
y_3_7_1 0
y_3_8_1 0
y_3_9_1 0
y_3_10_1 0
y_3_11_1 0
y_3_12_1 0
y_3_13_1 0
y_4_1_1 0
y_4_2_1 0
y_4_3_1 0
y_4_5_1 0
y_4_6_1 0
y_4_7_1 0
y_4_8_1 0
y_4_9_1 0
y_4_10_1 0
y_4_11_1 0
y_4_12_1 0
y_4_13_1 0
y_5_1_1 0
y_5_2_1 0
y_5_3_1 0
y_5_4_1 0
y_5_6_1 0
y_5_7_1 0
y_5_8_1 0
y_5_9_1 0
y_5_10_1 0
y_5_11_1 0
y_5_12_1 0
y_5_13_1 0
y_6_1_1 0
y_6_2_1 0
y_6_3_1 0
y_6_4_1 0
y_6_5_1 0
y_6_7_1 0
y_6_8_1 0
y_6_9_1 0
y_6_10_1 0
y_6_11_1 0
y_6_12_1 0
y_6_13_1 0
y_7_1_1 0
y_7_2_1 0
y_7_3_1 0
y_7_4_1 0
y_7_5_1 0
y_7_6_1 0
y_7_8_1 0
y_7_9_1 0
y_7_10_1 0
y_7_11_1 0
y_7_12_1 0
y_7_13_1 0
y_8_1_1 0
y_8_2_1 0
y_8_3_1 0
y_8_4_1 0
y_8_5_1 0
y_8_6_1 0
y_8_7_1 0
y_8_9_1 0
y_8_10_1 0
y_8_11_1 0
y_8_12_1 0
y_8_13_1 0
y_9_1_1 0
y_9_2_1 0
y_9_3_1 0
y_9_4_1 0
y_9_5_1 0
y_9_6_1 0
y_9_7_1 0
y_9_8_1 0
y_9_10_1 0
y_9_11_1 0
y_9_12_1 0
y_9_13_1 0
y_10_1_1 0
y_10_2_1 0
y_10_3_1 0
y_10_4_1 0
y_10_5_1 0
y_10_6_1 0
y_10_7_1 0
y_10_8_1 0
y_10_9_1 0
y_10_11_1 0
y_10_12_1 0
y_10_13_1 0
Q_0_1 0
Q_1_1 2.5701799999997240e+02
Q_2_1 3.3994799999997332e+02
Q_3_1 1.4237800000002804e+02
Q_4_1 7.9954999999998108e+01
Q_5_1 3.0443000000007549e+02
Q_6_1 1.0340500000000250e+02
Q_7_1 1.4186499999997224e+02
Q_8_1 1.4587600000002203e+02
Q_9_1 2.3160100000005892e+02
Q_10_1 5.8386000000004074e+01
Q_11_1 3.3994799999997304e+02
Q_12_1 3.0443000000007686e+02
Q_13_1 1.4237800000002790e+02
R_11_1 0
R_12_1 0
R_13_1 0
L_1_1 0
L_2_1 0
L_3_1 0
L_4_1 0
L_5_1 0
L_6_1 0
L_7_1 0
L_8_1 0
L_9_1 0
L_10_1 0
rho_1_1 0
rho_2_1 0
rho_3_1 0
rho_4_1 0
rho_5_1 0
rho_6_1 0
rho_7_1 0
rho_8_1 0
rho_9_1 0
rho_10_1 0
lambd_1_1 0
lambd_2_1 0
lambd_3_1 0
lambd_4_1 0
lambd_5_1 0
lambd_6_1 0
lambd_7_1 0
lambd_8_1 0
lambd_9_1 0
lambd_10_1 0
alpha_1_1 0
alpha_2_1 0
alpha_3_1 0
alpha_4_1 0
alpha_5_1 0
alpha_6_1 0
alpha_7_1 0
alpha_8_1 0
alpha_9_1 0
alpha_10_1 0
